language Essence 1.3

letting class be
        function(1 --> 1, 2 --> 10, 3 --> 2, 4 --> 1, 5 --> 3, 6 --> 3, 7 --> 4, 8 --> 10, 9 --> 8, 10 --> 2, 11 --> 1,
                 12 --> 5, 13 --> 1, 14 --> 1, 15 --> 9, 16 --> 6, 17 --> 8, 18 --> 4, 19 --> 9, 20 --> 5, 21 --> 5,
                 22 --> 6, 23 --> 5, 24 --> 2, 25 --> 1, 26 --> 7, 27 --> 9, 28 --> 9, 29 --> 3)
letting deck_length be 66
letting deck_width be 90
letting length be
        function(1 --> 42, 2 --> 52, 3 --> 65, 4 --> 2, 5 --> 35, 6 --> 43, 7 --> 38, 8 --> 3, 9 --> 5, 10 --> 24,
                 11 --> 26, 12 --> 61, 13 --> 18, 14 --> 7, 15 --> 59, 16 --> 49, 17 --> 5, 18 --> 57, 19 --> 30,
                 20 --> 46, 21 --> 47, 22 --> 37, 23 --> 11, 24 --> 22, 25 --> 20, 26 --> 59, 27 --> 42, 28 --> 46,
                 29 --> 45)
letting n_classes be 10
letting n_containers be 29
letting separation be function({6, 7} --> 68, {6, 9} --> 69)
letting width be
        function(1 --> 3, 2 --> 1, 3 --> 7, 4 --> 1, 5 --> 1, 6 --> 1, 7 --> 1, 8 --> 1, 9 --> 1, 10 --> 1, 11 --> 1,
                 12 --> 52, 13 --> 1, 14 --> 2, 15 --> 2, 16 --> 1, 17 --> 1, 18 --> 9, 19 --> 1, 20 --> 1, 21 --> 1,
                 22 --> 1, 23 --> 1, 24 --> 2, 25 --> 1, 26 --> 12, 27 --> 1, 28 --> 1, 29 --> 2)
